-99 -99 -99 -99 -99 -99 000 -99 -99 000 000 000 000 000 000 000 000 000 000 000 000 000 000 000 000 000 000 001 000 001 006
000 -99 -99 -99 000 000 000 000 -99 000 000 000 000 000 000 000 000 000 000 000 000 000 000 000 000 000 002 003 000 003 021
000 -99 -99 000 000 000 000 000 000 -99 000 000 000 000 000 000 000 000 000 000 000 000 000 000 000 000 001 015 012 012 040
000 -99 000 000 000 000 000 000 -99 -99 000 000 000 000 000 000 000 000 000 000 000 000 000 000 000 000 001 019 034 061 107
000 000 000 000 000 000 000 000 000 000 -99 000 000 000 000 000 000 000 000 000 000 000 001 001 001 001 009 017 046 078 109
000 000 000 000 000 000 000 000 000 000 000 000 000 000 000 000 000 000 000 000 000 000 002 005 015 005 026 043 073 087 092
000 000 000 000 000 000 000 000 000 000 000 000 000 000 000 000 000 000 000 000 000 001 006 014 020 011 033 072 118 175 165
000 000 000 000 000 000 000 000 000 000 000 000 000 001 000 000 000 000 000 000 000 001 011 015 039 034 042 140 165 320 283
000 000 000 000 000 000 000 000 000 000 000 000 001 001 000 000 000 000 000 000 001 001 008 020 064 071 057 066 068 143 249
000 000 000 000 000 000 000 000 000 000 000 001 001 001 001 001 000 000 000 001 001 003 006 010 013 109 056 039 069 050 085
000 000 000 000 000 000 000 000 000 000 000 000 002 003 001 002 002 002 000 001 001 004 006 009 015 085 033 029 035 032 040
000 000 000 000 000 000 000 000 000 000 000 000 000 004 003 003 005 008 001 000 001 004 004 010 016 016 011 011 020 018 016
000 000 000 000 000 000 000 000 000 000 000 000 000 001 003 004 008 014 004 001 000 001 003 005 012 011 009 003 003 005 006
000 000 000 -99 000 000 000 000 000 000 000 000 001 001 001 006 011 017 017 005 001 000 001 004 006 006 003 002 001 002 005
000 000 000 000 000 000 000 000 000 001 001 002 002 002 002 009 021 018 061 040 011 002 000 003 003 003 003 001 001 001 004
000 000 000 000 000 000 000 000 000 001 005 008 008 004 005 013 031 024 056 044 015 002 000 003 002 001 002 001 001 001 002
000 000 000 000 000 000 000 000 000 001 003 006 005 005 009 020 031 031 057 064 044 011 005 003 001 001 001 001 003 005 006
000 000 -99 -99 000 000 000 000 000 001 004 004 003 005 012 026 031 039 077 083 051 022 014 006 001 001 000 002 003 013 023
000 000 000 000 -99 000 000 000 000 000 003 002 003 006 018 033 044 054 087 152 100 040 032 017 003 010 004 014 009 023 026
000 000 000 000 000 000 000 000 001 000 003 004 003 009 023 025 030 052 100 123 172 069 061 028 012 042 015 026 013 021 025
-99 000 000 000 000 001 002 001 003 001 004 004 004 006 013 029 042 075 152 096 152 100 044 030 022 037 040 021 013 017 025
000 000 000 000 000 002 004 004 005 005 007 008 005 008 024 058 031 042 052 072 056 054 016 012 016 039 033 018 007 012 024
000 -99 -99 000 001 002 004 006 007 009 017 018 015 023 034 087 035 029 046 058 040 045 014 008 009 021 024 013 006 010 023
000 000 000 000 000 001 002 004 007 013 034 026 040 052 048 089 025 009 021 025 018 021 011 007 005 007 015 009 005 007 022
000 000 000 000 000 000 000 001 009 014 048 061 152 044 020 051 012 002 003 005 006 010 008 006 005 005 010 -99 006 003 006
-99 -99 -99 000 000 000 000 000 002 006 024 195 129 028 005 013 004 000 000 000 002 005 005 005 004 005 -99 -99 -99 -99 000
000 000 -99 000 000 000 000 000 000 007 041 203 118 007 002 000 000 000 000 000 000 001 002 -99 -99 -99 -99 -99 -99 -99 000
000 000 -99 000 000 000 000 000 000 006 014 035 006 000 000 000 000 000 000 000 000 000 000 -99 -99 -99 -99 -99 -99 -99 000
000 000 -99 -99 000 000 000 000 000 001 001 001 001 000 000 000 000 000 -99 -99 000 000 -99 -99 -99 -99 -99 -99 -99 -99 -99
-99 -99 -99 -99 -99 000 000 000 000 000 000 000 000 000 000 000 000 000 -99 000 000 000 -99 -99 -99 -99 -99 -99 -99 -99 -99
000 000 000 000 000 000 000 000 000 000 000 -99 -99 -99 000 000 000 -99 000 000 -99 000 -99 000 000 -99 -99 -99 -99 -99 -99
000 000 000 000 000 000 000 000 000 -99 -99 -99 -99 -99 -99 000 000 000 000 -99 000 000 000 000 000 -99 -99 000 000 -99 -99
000 000 000 -99 000 000 000 000 000 -99 -99 -99 -99 000 -99 000 000 000 000 000 000 000 000 000 000 -99 -99 -99 000 -99 -99
-99 -99 -99 -99 000 000 000 000 -99 -99 -99 -99 000 000 000 000 000 000 000 000 000 000 000 000 000 000 -99 000 000 -99 -99
-99 -99 -99 000 000 000 000 -99 -99 -99 -99 -99 000 000 000 000 000 000 -99 -99 000 000 000 000 000 000 -99 000 000 -99 -99
-99 -99 -99 -99 -99 -99 000 -99 -99 -99 -99 -99 000 000 000 000 000 000 000 000 000 000 -99 -99 000 000 -99 000 -99 -99 -99
000 000 -99 000 000 -99 -99 -99 -99 -99 -99 -99 -99 -99 000 000 000 000 000 000 000 000 -99 -99 000 000 -99 000 -99 -99 -99
000 000 -99 000 000 -99 -99 -99 -99 -99 -99 -99 -99 -99 000 000 000 000 000 -99 000 000 -99 000 000 -99 000 -99 -99 -99 -99
000 000 -99 000 -99 -99 -99 -99 -99 -99 -99 -99 -99 -99 000 000 000 000 -99 -99 000 000 000 000 000 -99 000 -99 -99 -99 -99
000 -99 000 -99 -99 -99 -99 -99 -99 -99 -99 -99 000 000 000 000 000 -99 -99 -99 -99 -99 000 000 -99 -99 -99 -99 -99 -99 -99
-99 000 -99 -99 -99 -99 -99 -99 -99 -99 000 000 000 000 000 000 -99 -99 -99 -99 -99 -99 000 -99 -99 -99 -99 -99 -99 -99 -99
000 000 -99 -99 -99 -99 -99 -99 -99 -99 000 000 000 000 000 000 -99 -99 -99 -99 -99 -99 000 000 000 -99 -99 -99 -99 000 -99
000 000 -99 -99 -99 -99 -99 -99 -99 -99 -99 000 000 -99 -99 000 -99 -99 -99 000 -99 -99 -99 000 000 -99 -99 -99 -99 -99 -99
-99 -99 -99 -99 -99 -99 -99 -99 -99 -99 -99 000 000 -99 -99 -99 -99 -99 000 000 -99 -99 -99 -99 000 -99 -99 -99 000 -99 -99
-99 -99 -99 -99 -99 -99 -99 -99 -99 -99 -99 -99 000 -99 -99 -99 000 -99 000 000 -99 -99 -99 000 000 -99 -99 000 000 -99 -99
-99 -99 -99 -99 -99 -99 -99 -99 -99 -99 -99 000 000 -99 -99 -99 000 000 000 000 -99 -99 -99 -99 000 -99 -99 000 -99 -99 -99
-99 -99 -99 -99 -99 -99 -99 -99 -99 -99 -99 000 -99 -99 -99 -99 -99 000 000 -99 -99 -99 -99 -99 -99 -99 000 -99 -99 -99 -99
-99 -99 -99 -99 -99 -99 -99 -99 -99 -99 -99 -99 -99 -99 -99 -99 -99 -99 -99 -99 -99 -99 -99 -99 -99 -99 -99 -99 -99 -99 -99
-99 -99 -99 -99 -99 -99 -99 -99 -99 -99 -99 -99 -99 -99 -99 -99 -99 000 -99 -99 000 000 000 -99 -99 -99 000 -99 -99 -99 -99
-99 -99 -99 -99 -99 -99 -99 -99 -99 -99 -99 -99 -99 -99 -99 -99 -99 000 -99 -99 000 000 -99 -99 -99 -99 000 -99 -99 -99 -99
-99 -99 -99 -99 -99 -99 -99 -99 -99 -99 -99 -99 -99 -99 -99 -99 -99 -99 000 000 000 -99 -99 -99 -99 -99 -99 -99 -99 -99 -99
-99 -99 -99 -99 -99 -99 -99 -99 -99 -99 -99 -99 -99 -99 -99 -99 -99 -99 000 000 -99 -99 -99 -99 -99 -99 -99 -99 -99 -99 -99
-99 -99 -99 -99 -99 -99 -99 -99 -99 -99 -99 -99 -99 -99 -99 -99 -99 000 000 -99 -99 -99 -99 -99 -99 -99 -99 -99 -99 -99 -99
-99 -99 -99 -99 -99 -99 -99 -99 -99 -99 -99 -99 -99 -99 -99 -99 -99 000 000 -99 -99 -99 -99 -99 -99 -99 -99 -99 -99 -99 -99
-99 -99 -99 -99 -99 -99 -99 -99 -99 -99 -99 -99 -99 -99 -99 -99 000 000 -99 -99 -99 -99 -99 -99 -99 -99 -99 -99 -99 -99 -99
